
******************************************************************************
This program contains Ipopt, a library for large-scale nonlinear optimization.
 Ipopt is released as open source code under the Eclipse Public License (EPL).
         For more information visit http://projects.coin-or.org/Ipopt
******************************************************************************

This is Ipopt version 3.12.6, running with linear solver ma57.

Number of nonzeros in equality constraint Jacobian...:      600
Number of nonzeros in inequality constraint Jacobian.:        0
Number of nonzeros in Lagrangian Hessian.............:   180300

Reallocating memory for MA57: lfact (1200466)
Total number of variables............................:      600
                     variables with only lower bounds:        0
                variables with lower and upper bounds:        0
                     variables with only upper bounds:        0
Total number of equality constraints.................:      200
Total number of inequality constraints...............:        0
        inequality constraints with only lower bounds:        0
   inequality constraints with lower and upper bounds:        0
        inequality constraints with only upper bounds:        0

iter    objective    inf_pr   inf_du lg(mu)  ||d||  lg(rg) alpha_du alpha_pr  ls
   0  4.1121333e+04 1.24e-09 1.00e+02  -1.0 0.00e+00    -  0.00e+00 0.00e+00   0
   1  4.1119245e+04 1.00e-08 9.94e+01  -1.0 9.94e-05   6.0 1.00e+00 1.00e+00f  1
   2  4.1113071e+04 8.69e-08 9.76e+01  -1.0 2.93e-04   5.5 1.00e+00 1.00e+00f  1
   3  4.1095233e+04 7.08e-07 9.31e+01  -1.0 8.36e-04   5.0 1.00e+00 1.00e+00f  1
   4  4.1046056e+04 5.07e-06 8.37e+01  -1.0 2.24e-03   4.6 1.00e+00 1.00e+00f  1
   5  4.1028360e+04 6.75e-07 8.07e+01  -1.0 8.17e-04   5.0 1.00e+00 1.00e+00f  1
   6  4.0978468e+04 5.06e-06 7.41e+01  -1.0 2.24e-03   4.5 1.00e+00 1.00e+00f  1
   7  4.0960364e+04 6.78e-07 7.19e+01  -1.0 8.19e-04   4.9 1.00e+00 1.00e+00f  1
   8  4.0908756e+04 5.22e-06 6.68e+01  -1.0 2.27e-03   4.5 1.00e+00 1.00e+00f  1
   9  4.0889945e+04 7.02e-07 6.51e+01  -1.0 8.34e-04   4.9 1.00e+00 1.00e+00f  1
iter    objective    inf_pr   inf_du lg(mu)  ||d||  lg(rg) alpha_du alpha_pr  ls
  10  4.0835982e+04 5.50e-06 6.10e+01  -1.0 2.34e-03   4.4 1.00e+00 1.00e+00f  1
  11  4.0816258e+04 7.43e-07 5.96e+01  -1.0 8.59e-04   4.8 1.00e+00 1.00e+00f  1
  12  4.0759459e+04 5.89e-06 5.61e+01  -1.0 2.42e-03   4.4 1.00e+00 1.00e+00f  1
  13  4.0738662e+04 7.98e-07 5.49e+01  -1.0 8.91e-04   4.8 1.00e+00 1.00e+00f  1
  14  4.0678626e+04 6.38e-06 5.19e+01  -1.0 2.52e-03   4.3 1.00e+00 1.00e+00f  1
  15  4.0656620e+04 8.65e-07 5.09e+01  -1.0 9.28e-04   4.7 1.00e+00 1.00e+00f  1
  16  4.0592986e+04 6.95e-06 4.82e+01  -1.0 2.63e-03   4.3 1.00e+00 1.00e+00f  1
  17  4.0569644e+04 9.44e-07 4.73e+01  -1.0 9.71e-04   4.7 1.00e+00 1.00e+00f  1
  18  4.0502059e+04 7.62e-06 4.49e+01  -1.0 2.76e-03   4.2 1.00e+00 1.00e+00f  1
  19  4.0477249e+04 1.03e-06 4.40e+01  -1.0 1.02e-03   4.6 1.00e+00 1.00e+00f  1
iter    objective    inf_pr   inf_du lg(mu)  ||d||  lg(rg) alpha_du alpha_pr  ls
  20  4.0405101e+04 8.37e-06 4.18e+01  -1.0 2.89e-03   4.2 1.00e+00 1.00e+00f  1
  21  4.0378472e+04 1.14e-06 4.10e+01  -1.0 1.07e-03   4.6 1.00e+00 1.00e+00f  1
  22  4.0286369e+04 9.62e-06 3.89e+01  -1.0 3.03e-03   4.1 1.00e+00 1.00e+00f  1
  23  4.0244980e+04 1.62e-06 4.12e+01  -1.0 1.23e-03   4.5 1.00e+00 1.00e+00f  1
  24  3.9661287e+04 3.19e-04 4.50e+01  -1.0 1.41e-02   4.1 1.00e+00 1.00e+00f  1
  25  3.9577002e+04 2.19e-06 4.35e+01  -1.0 1.44e-03   4.5 1.00e+00 1.00e+00f  1
  26  3.9272233e+04 7.04e-05 3.83e+01  -1.0 6.73e-03   4.0 1.00e+00 1.00e+00f  1
  27  3.9178162e+04 2.65e-06 3.65e+01  -1.0 1.37e-03   4.4 1.00e+00 1.00e+00f  1
  28  3.8873470e+04 5.70e-05 3.72e+01  -1.0 6.75e-03   4.0 1.00e+00 1.00e+00f  1
  29  3.8776339e+04 2.77e-06 3.55e+01  -1.0 1.51e-03   4.4 1.00e+00 1.00e+00f  1
iter    objective    inf_pr   inf_du lg(mu)  ||d||  lg(rg) alpha_du alpha_pr  ls
  30  3.8475320e+04 5.50e-05 3.53e+01  -1.0 7.04e-03   3.9 1.00e+00 1.00e+00f  1
  31  3.8377497e+04 2.93e-06 3.43e+01  -1.0 1.62e-03   4.3 1.00e+00 1.00e+00f  1
  32  3.8079892e+04 5.45e-05 3.24e+01  -1.0 7.04e-03   3.9 1.00e+00 1.00e+00f  1
  33  3.7982003e+04 3.14e-06 3.15e+01  -1.0 1.69e-03   4.3 1.00e+00 1.00e+00f  1
  34  3.7686273e+04 5.69e-05 2.93e+01  -1.0 7.20e-03   3.8 1.00e+00 1.00e+00f  1
  35  3.7588195e+04 3.34e-06 2.85e+01  -1.0 1.72e-03   4.2 1.00e+00 1.00e+00f  1
  36  3.7292121e+04 5.85e-05 2.63e+01  -1.0 7.17e-03   3.8 1.00e+00 1.00e+00f  1
  37  3.7193370e+04 3.60e-06 2.52e+01  -1.0 1.71e-03   4.2 1.00e+00 1.00e+00f  1
  38  3.6894150e+04 6.29e-05 2.28e+01  -1.0 7.07e-03   3.7 1.00e+00 1.00e+00f  1
  39  3.6793942e+04 3.86e-06 2.25e+01  -1.0 1.72e-03   4.1 1.00e+00 1.00e+00f  1
iter    objective    inf_pr   inf_du lg(mu)  ||d||  lg(rg) alpha_du alpha_pr  ls
  40  3.6488361e+04 7.41e-05 1.98e+01  -1.0 7.09e-03   3.6 1.00e+00 1.00e+00f  1
  41  3.6385828e+04 4.12e-06 1.93e+01  -1.0 1.67e-03   4.1 1.00e+00 1.00e+00f  1
  42  3.6071561e+04 8.59e-05 1.67e+01  -1.0 7.34e-03   3.6 1.00e+00 1.00e+00f  1
  43  3.5965995e+04 4.43e-06 1.61e+01  -1.0 1.56e-03   4.0 1.00e+00 1.00e+00f  1
  44  3.5639565e+04 9.30e-05 1.40e+01  -1.0 6.74e-03   3.5 1.00e+00 1.00e+00f  1
  45  3.5530146e+04 4.78e-06 1.38e+01  -1.0 1.47e-03   4.0 1.00e+00 1.00e+00f  1
  46  3.5189346e+04 1.15e-04 1.32e+01  -1.0 6.52e-03   3.5 1.00e+00 1.00e+00f  1
  47  3.5075694e+04 5.14e-06 1.30e+01  -1.0 1.56e-03   3.9 1.00e+00 1.00e+00f  1
  48  3.4718555e+04 1.45e-04 1.24e+01  -1.0 7.33e-03   3.4 1.00e+00 1.00e+00f  1
  49  3.4600574e+04 5.52e-06 1.23e+01  -1.0 1.66e-03   3.9 1.00e+00 1.00e+00f  1
iter    objective    inf_pr   inf_du lg(mu)  ||d||  lg(rg) alpha_du alpha_pr  ls
  50  3.4224404e+04 1.78e-04 1.18e+01  -1.0 8.66e-03   3.4 1.00e+00 1.00e+00f  1
  51  3.4101910e+04 5.90e-06 1.16e+01  -1.0 1.77e-03   3.8 1.00e+00 1.00e+00f  1
  52  3.3691498e+04 2.52e-04 1.13e+01  -1.0 1.17e-02   3.3 1.00e+00 1.00e+00f  1
  53  3.3562923e+04 6.34e-06 1.11e+01  -1.0 1.90e-03   3.8 1.00e+00 1.00e+00f  1
  54  3.3108558e+04 4.13e-04 1.08e+01  -1.0 1.55e-02   3.3 1.00e+00 1.00e+00f  1
  55  3.2974090e+04 6.72e-06 1.06e+01  -1.0 2.05e-03   3.7 1.00e+00 1.00e+00f  1
  56  3.2401470e+04 1.82e-03 1.03e+01  -1.0 3.60e-02   3.2 1.00e+00 1.00e+00f  1
  57  3.2260929e+04 6.99e-06 1.02e+01  -1.0 2.21e-03   3.7 1.00e+00 1.00e+00f  1
  58  3.2209157e+04 9.48e-07 1.02e+01  -1.0 8.25e-04   4.1 1.00e+00 1.00e+00f  1
  59  3.2058640e+04 8.48e-06 1.00e+01  -1.0 2.46e-03   3.6 1.00e+00 1.00e+00f  1
iter    objective    inf_pr   inf_du lg(mu)  ||d||  lg(rg) alpha_du alpha_pr  ls
  60  3.2003504e+04 1.19e-06 1.00e+01  -1.0 9.13e-04   4.0 1.00e+00 1.00e+00f  1
  61  3.1842022e+04 1.10e-05 9.89e+00  -1.0 2.71e-03   3.6 1.00e+00 1.00e+00f  1
  62  3.1782693e+04 1.49e-06 9.86e+00  -1.0 1.01e-03   4.0 1.00e+00 1.00e+00f  1
  63  3.1606393e+04 1.39e-05 9.87e+00  -1.0 3.19e-03   3.5 1.00e+00 1.00e+00f  1
  64  3.1541154e+04 1.85e-06 9.82e+00  -1.0 1.14e-03   3.9 1.00e+00 1.00e+00f  1
  65  3.1341237e+04 1.81e-05 9.82e+00  -1.0 3.64e-03   3.5 1.00e+00 1.00e+00f  1
  66  3.1266724e+04 2.29e-06 9.77e+00  -1.0 1.27e-03   3.9 1.00e+00 1.00e+00f  1
  67  3.1036017e+04 2.47e-05 1.01e+01  -1.0 4.41e-03   3.4 1.00e+00 1.00e+00f  1
  68  3.0951899e+04 2.79e-06 9.96e+00  -1.0 1.47e-03   3.8 1.00e+00 1.00e+00f  1
  69  3.0701619e+04 3.21e-05 1.00e+01  -1.0 5.27e-03   3.4 1.00e+00 1.00e+00f  1
iter    objective    inf_pr   inf_du lg(mu)  ||d||  lg(rg) alpha_du alpha_pr  ls
  70  3.0612371e+04 3.37e-06 9.96e+00  -1.0 1.66e-03   3.8 1.00e+00 1.00e+00f  1
  71  3.0358933e+04 3.82e-05 1.04e+01  -1.0 5.96e-03   3.3 1.00e+00 1.00e+00f  1
  72  3.0269305e+04 4.10e-06 1.03e+01  -1.0 1.92e-03   3.7 1.00e+00 1.00e+00f  1
  73  3.0020082e+04 3.67e-05 9.82e+00  -1.0 5.48e-03   3.3 1.00e+00 1.00e+00f  1
  74  2.9387827e+04 3.25e-04 9.45e+00  -1.0 1.65e-02   2.8 1.00e+00 1.00e+00f  1
  75  2.9178660e+04 3.93e-05 9.00e+00  -1.0 5.63e-03   3.2 1.00e+00 1.00e+00f  1
  76  2.8628611e+04 2.91e-04 8.22e+00  -1.0 1.55e-02   2.7 1.00e+00 1.00e+00f  1
  77  2.8439380e+04 3.74e-05 7.75e+00  -1.0 5.44e-03   3.2 1.00e+00 1.00e+00f  1
  78  2.7925132e+04 3.57e-04 7.03e+00  -1.0 1.47e-02   2.7 1.00e+00 1.00e+00f  1
  79  2.7747326e+04 4.38e-05 6.63e+00  -1.0 5.24e-03   3.1 1.00e+00 1.00e+00f  1
iter    objective    inf_pr   inf_du lg(mu)  ||d||  lg(rg) alpha_du alpha_pr  ls
  80  2.7263838e+04 3.60e-04 6.07e+00  -1.0 1.43e-02   2.6 1.00e+00 1.00e+00f  1
  81  2.7096733e+04 4.54e-05 5.75e+00  -1.0 5.11e-03   3.1 1.00e+00 1.00e+00f  1
  82  2.6643337e+04 3.40e-04 5.31e+00  -1.0 1.41e-02   2.6 1.00e+00 1.00e+00f  1
  83  2.6486631e+04 4.46e-05 5.04e+00  -1.0 5.06e-03   3.0 1.00e+00 1.00e+00f  1
  84  2.6061839e+04 3.32e-04 5.11e+00  -1.0 1.57e-02   2.5 1.00e+00 1.00e+00f  1
  85  2.5914449e+04 4.42e-05 5.16e+00  -1.0 5.83e-03   2.9 1.00e+00 1.00e+00f  1
  86  2.5510977e+04 3.69e-04 4.93e+00  -1.0 1.70e-02   2.5 1.00e+00 1.00e+00f  1
  87  2.5370187e+04 4.79e-05 4.90e+00  -1.0 6.22e-03   2.9 1.00e+00 1.00e+00f  1
  88  2.4980483e+04 4.25e-04 4.53e+00  -1.0 1.84e-02   2.4 1.00e+00 1.00e+00f  1
  89  2.4844994e+04 5.02e-05 4.46e+00  -1.0 6.37e-03   2.8 1.00e+00 1.00e+00f  1
iter    objective    inf_pr   inf_du lg(mu)  ||d||  lg(rg) alpha_du alpha_pr  ls
  90  2.4474184e+04 4.07e-04 4.13e+00  -1.0 1.82e-02   2.4 1.00e+00 1.00e+00f  1
  91  2.4346305e+04 5.05e-05 4.01e+00  -1.0 6.44e-03   2.8 1.00e+00 1.00e+00f  1
  92  2.3999735e+04 3.92e-04 3.65e+00  -1.0 1.75e-02   2.3 1.00e+00 1.00e+00f  1
  93  2.3208296e+04 2.54e-03 3.00e+00  -1.0 4.41e-02   1.8 1.00e+00 1.00e+00f  1
  94  2.2961967e+04 3.33e-04 2.93e+00  -1.0 1.59e-02   2.3 1.00e+00 1.00e+00f  1
  95  2.2350466e+04 2.42e-03 2.54e+00  -1.0 4.08e-02   1.8 1.00e+00 1.00e+00f  1
  96  2.2155967e+04 3.19e-04 2.48e+00  -1.0 1.51e-02   2.2 1.00e+00 1.00e+00f  1
  97  2.1658594e+04 2.32e-03 2.18e+00  -1.0 3.95e-02   1.7 1.00e+00 1.00e+00f  1
  98  2.0690668e+04 1.48e-02 1.68e+00  -1.0 9.58e-02   1.3 1.00e+00 1.00e+00f  1
  99  2.0444475e+04 1.53e-03 1.64e+00  -1.0 3.40e-02   1.7 1.00e+00 1.00e+00f  1
iter    objective    inf_pr   inf_du lg(mu)  ||d||  lg(rg) alpha_du alpha_pr  ls
 100  1.9861577e+04 8.52e-03 1.33e+00  -1.0 8.07e-02   1.2 1.00e+00 1.00e+00f  1
 101  1.9707330e+04 1.11e-03 1.28e+00  -1.0 2.97e-02   1.6 1.00e+00 1.00e+00f  1
 102  1.9325135e+04 7.75e-03 1.09e+00  -1.0 7.73e-02   1.2 1.00e+00 1.00e+00f  1
 103  1.9225952e+04 9.68e-04 1.05e+00  -1.0 2.76e-02   1.6 1.00e+00 1.00e+00f  1
 104  1.8973086e+04 6.12e-03 8.81e-01  -1.0 6.96e-02   1.1 1.00e+00 1.00e+00f  1
 105  1.8605896e+04 2.80e-02 5.00e-01  -1.7 1.31e-01   0.6 1.00e+00 1.00e+00f  1
 106  1.8578353e+04 1.63e-03 3.93e-01  -1.7 3.61e-02   1.1 1.00e+00 1.00e+00h  1
 107  1.8486067e+04 4.05e-03 1.93e-01  -1.7 5.51e-02   0.6 1.00e+00 1.00e+00f  1
 108  1.8436082e+04 1.68e-02 1.13e-01  -2.5 1.08e-01   0.1 1.00e+00 1.00e+00f  1
 109  1.8447949e+04 3.85e-04 5.33e-02  -2.5 1.62e-02   0.5 1.00e+00 1.00e+00h  1
iter    objective    inf_pr   inf_du lg(mu)  ||d||  lg(rg) alpha_du alpha_pr  ls
 110  1.8444017e+04 1.00e-03 2.83e-02  -2.5 2.73e-02   0.1 1.00e+00 1.00e+00h  1
 111  1.8444825e+04 8.58e-05 2.58e-02  -2.5 8.69e-03   0.5 1.00e+00 1.00e+00h  1
 112  1.8443218e+04 8.87e-04 2.49e-02  -3.8 2.79e-02   0.0 1.00e+00 1.00e+00h  1
 113  1.8443552e+04 1.07e-04 2.49e-02  -3.8 9.62e-03   0.4 1.00e+00 1.00e+00h  1
 114  1.8441984e+04 1.24e-03 1.80e-02  -3.8 3.33e-02  -0.1 1.00e+00 1.00e+00h  1
 115  1.8483323e+04 3.02e-05 9.60e+00  -3.8 1.89e-01  -0.5 1.00e+00 1.00e+00H  1
 116  1.8480273e+04 5.44e-06 7.67e+00  -3.8 2.26e-03   3.5 1.00e+00 1.00e+00f  1
 117  1.8475453e+04 1.95e-05 5.33e+00  -3.8 4.28e-03   3.0 1.00e+00 1.00e+00f  1
 118  1.8469097e+04 5.10e-05 3.31e+00  -3.8 6.89e-03   2.6 1.00e+00 1.00e+00f  1
 119  1.8461617e+04 1.16e-04 1.89e+00  -3.8 1.02e-02   2.1 1.00e+00 1.00e+00f  1
iter    objective    inf_pr   inf_du lg(mu)  ||d||  lg(rg) alpha_du alpha_pr  ls
 120  1.8459405e+04 2.28e-05 1.51e+00  -3.8 4.53e-03   2.5 1.00e+00 1.00e+00f  1
 121  1.8455529e+04 8.39e-05 1.04e+00  -3.8 8.60e-03   2.0 1.00e+00 1.00e+00f  1
 122  1.8450552e+04 2.41e-04 6.13e-01  -3.8 1.46e-02   1.6 1.00e+00 1.00e+00f  1
 123  1.8446050e+04 8.05e-07 3.14e-01  -3.8 2.19e-02   1.1 1.00e+00 1.00e+00F  1
 124  1.8442921e+04 1.43e-03 1.08e-01  -3.8 3.25e-02   0.6 1.00e+00 1.00e+00f  1
 125  1.8441457e+04 3.30e-03 5.73e-02  -3.8 4.47e-02   0.1 1.00e+00 1.00e+00h  1
 126  1.8439326e+04 5.10e-03 6.07e-02  -3.8 5.67e-02  -0.4 1.00e+00 1.00e+00h  1
 127  1.8440887e+04 1.49e-04 1.57e-02  -3.8 1.19e-02   0.1 1.00e+00 1.00e+00h  1
 128  1.8440131e+04 4.75e-04 7.52e-03  -3.8 1.91e-02  -0.4 1.00e+00 1.00e+00h  1
 129  1.8440550e+04 5.01e-05 5.88e-03  -3.8 5.70e-03   0.0 1.00e+00 1.00e+00h  1
iter    objective    inf_pr   inf_du lg(mu)  ||d||  lg(rg) alpha_du alpha_pr  ls
 130  1.8439810e+04 7.42e-04 6.59e-03  -3.8 2.56e-02  -0.5 1.00e+00 1.00e+00h  1
 131  1.8344817e+04 3.86e-01 2.83e+00  -3.8 5.08e-01  -0.9 1.00e+00 1.00e+00h  1
 132  1.8434843e+04 1.99e-01 8.51e+00  -3.8 1.17e-01   2.2 1.00e+00 5.00e-01h  2
 133  1.8437840e+04 1.93e-01 9.09e+00  -3.8 6.44e-02   2.6 1.00e+00 3.12e-02h  6
 134  1.8438610e+04 1.92e-01 9.57e+00  -3.8 6.27e-02   3.0 1.00e+00 7.81e-03h  8
 135  1.8439313e+04 1.90e-01 9.68e+00  -3.8 6.20e-02   2.6 1.00e+00 7.81e-03h  8
 136  1.8439325e+04 1.90e-01 9.68e+00  -3.8 6.18e-02   3.0 1.00e+00 1.22e-04h 14
 137  1.8511726e+04 7.60e-03 2.04e+01  -3.8 6.15e-02   2.5 1.00e+00 1.00e+00h  1
 138  1.8501838e+04 1.39e-04 1.65e+00  -3.8 1.07e-02   2.0 1.00e+00 1.00e+00h  1
 139  1.8484465e+04 5.34e-04 1.02e+00  -3.8 2.20e-02   1.6 1.00e+00 1.00e+00f  1
iter    objective    inf_pr   inf_du lg(mu)  ||d||  lg(rg) alpha_du alpha_pr  ls
 140  1.8463127e+04 2.40e-03 4.63e-01  -3.8 4.31e-02   1.1 1.00e+00 1.00e+00f  1
 141  1.8459940e+04 1.78e-04 4.08e-01  -3.8 1.24e-02   1.5 1.00e+00 1.00e+00h  1
 142  1.8453574e+04 7.04e-04 2.57e-01  -3.8 2.49e-02   1.0 1.00e+00 1.00e+00f  1
 143  1.8445115e+04 1.33e-02 1.30e-01  -3.8 8.02e-02   0.6 1.00e+00 1.00e+00f  1
 144  1.8445747e+04 1.31e-04 1.03e-01  -3.8 1.09e-02   1.0 1.00e+00 1.00e+00h  1
 145  1.8444065e+04 4.25e-04 5.48e-02  -3.8 1.96e-02   0.5 1.00e+00 1.00e+00h  1
 146  1.8443970e+04 2.83e-05 4.41e-02  -3.8 5.17e-03   0.9 1.00e+00 1.00e+00h  1
 147  1.8443061e+04 2.97e-04 3.44e-02  -3.8 1.67e-02   0.5 1.00e+00 1.00e+00h  1
 148  1.8439696e+04 4.39e-03 6.78e-02  -3.8 6.43e-02  -0.0 1.00e+00 1.00e+00h  1
 149  1.8441291e+04 7.86e-05 2.04e-02  -3.8 7.82e-03   0.4 1.00e+00 1.00e+00h  1
iter    objective    inf_pr   inf_du lg(mu)  ||d||  lg(rg) alpha_du alpha_pr  ls
 150  1.8440303e+04 5.55e-04 1.35e-02  -3.8 2.11e-02  -0.1 1.00e+00 1.00e+00h  1
 151  1.8436294e+04 1.74e-02 2.68e-01  -3.8 1.20e-01  -0.5 1.00e+00 1.00e+00h  1
 152  1.8439497e+04 1.77e-03 4.83e-02  -3.8 3.02e-02  -0.1 1.00e+00 1.00e+00h  1
 153  1.8439175e+04 7.62e-04 6.75e-03  -3.8 2.57e-02  -0.6 1.00e+00 1.00e+00h  1
 154  1.8439605e+04 2.09e-05 3.04e-03  -3.8 4.42e-03  -0.2 1.00e+00 1.00e+00h  1
 155  1.8439436e+04 1.97e-04 2.70e-03  -3.8 1.38e-02  -0.6 1.00e+00 1.00e+00h  1
 156  1.8439550e+04 3.62e-05 3.40e-03  -3.8 5.77e-03  -0.2 1.00e+00 1.00e+00h  1
 157  1.8438563e+04 4.20e-03 2.83e-02  -3.8 5.81e-02  -0.7 1.00e+00 1.00e+00h  1
 158  1.8438706e+04 1.01e-03 7.15e-03  -3.8 2.54e-02  -1.2 1.00e+00 1.00e+00h  1
 159  1.8438516e+04 8.52e-04 5.54e-03  -3.8 2.40e-02  -1.7 1.00e+00 1.00e+00h  1
iter    objective    inf_pr   inf_du lg(mu)  ||d||  lg(rg) alpha_du alpha_pr  ls
 160  1.8439222e+04 1.99e-04 1.05e-03  -3.8 1.21e-02  -1.2 1.00e+00 1.00e+00h  1
 161  1.8433159e+04 1.40e-02 8.35e-02  -5.7 1.06e-01  -1.7 1.00e+00 1.00e+00h  1
 162  1.8439048e+04 9.13e-04 2.10e-02  -5.7 2.85e-02  -0.4 1.00e+00 1.00e+00h  1
 163  1.8439160e+04 2.55e-04 2.96e-03  -5.7 1.25e-02  -0.9 1.00e+00 1.00e+00h  1
 164  1.8438942e+04 4.45e-04 2.74e-03  -5.7 1.83e-02  -1.3 1.00e+00 1.00e+00h  1
 165  1.8437906e+04 9.95e-04 5.52e-03  -5.7 2.85e-02  -1.8 1.00e+00 1.00e+00h  1
 166  1.8438158e+04 7.56e-04 4.22e-03  -5.7 2.49e-02  -2.3 1.00e+00 1.00e+00h  1
 167  1.8438784e+04 5.32e-04 2.32e-03  -5.7 2.12e-02    -  1.00e+00 1.00e+00h  1
 168  1.8439215e+04 9.59e-06 5.48e-05  -5.7 2.90e-03    -  1.00e+00 1.00e+00h  1
 169  1.8439227e+04 6.32e-07 3.35e-06  -5.7 7.12e-04    -  1.00e+00 1.00e+00h  1
iter    objective    inf_pr   inf_du lg(mu)  ||d||  lg(rg) alpha_du alpha_pr  ls
 170  1.8439227e+04 8.03e-09 5.85e-08  -8.6 7.55e-05    -  1.00e+00 1.00e+00h  1
 171  1.8439227e+04 2.48e-12 1.43e-11  -8.6 1.40e-06    -  1.00e+00 1.00e+00h  1

Number of Iterations....: 171

                                   (scaled)                 (unscaled)
Objective...............:   2.8609676985734541e+02    1.8439227484900188e+04
Dual infeasibility......:   1.4284184945978495e-11    9.2063023216450961e-10
Constraint violation....:   2.4810847820688764e-12    2.4810847820688764e-12
Complementarity.........:   0.0000000000000000e+00    0.0000000000000000e+00
Overall NLP error.......:   1.4284184945978495e-11    9.2063023216450961e-10


Number of objective function evaluations             = 208
Number of objective gradient evaluations             = 172
Number of equality constraint evaluations            = 208
Number of inequality constraint evaluations          = 0
Number of equality constraint Jacobian evaluations   = 172
Number of inequality constraint Jacobian evaluations = 0
Number of Lagrangian Hessian evaluations             = 171
Total CPU secs in IPOPT (w/o function evaluations)   =      8.907
Total CPU secs in NLP function evaluations           =      3.737

EXIT: Optimal Solution Found.
Note: The following floating-point exceptions are signalling: IEEE_INVALID_FLAG IEEE_DIVIDE_BY_ZERO

************************ CUTEst statistics ************************


 Package used            :  IPOPT
 Problem                 :  ELEC      
 # variables             =             600
 # constraints           =             200
 # objective functions   =        0.3810000E+03
 # objective gradients   =        0.1730000E+03
 # objective Hessians    =        0.1720000E+03
 # Hessian-vector prdct  =        0.0000000E+00
 # constraints functions =        0.3820000E+03
 # constraints gradients =        0.1740000E+03
 # constraints Hessians  =        0.1720000E+03
 Exit code               =               0
 Final f                 =   0.1843923E+05
 Set up time             =            0.36 seconds
 Solve time              =           12.66 seconds


******************************************************************

System Time =      12.6700000763 s.
